Mn2 Te2
1.0
       4.1499984905         0.0000000000         0.0000000000
      2.0749992452         3.5940041180         0.0000000000
       0.0000000000         0.0000000000         6.7100000000   
Mn   Te
    2    2
Direct
     0.000000000         0.000000000         0.000000000
     0.000000000         0.000000000         0.500000000
     0.333333330         0.333333330         0.750000000
     -0.333333330         0.666666670         0.250000000
