graphene
1.0
2.4677236   0.0000000   0.0000000
1.2338618   2.1371113   0.0000000
0.0000000   0.0000000  15.0000000
C
2
Direct
0.00000000   0.00000000   0
0.33333333   0.33333333   0